NAME          OrnekMPS

OBJSENSE
 MIN
ROWS
 N  COST
 E  EQN
 G  LIM1
 L  LIM2
COLUMNS
    X1        COST               4.0   LIM1               4.0
	X1			LIM2 1.0			EQN 3.0
    X2        COST               1.0   LIM1               3.0
	X2		LIM2  2.0		EQN 1.0
RHS
    RHS1      LIM1               6.0		LIM2	4.0
	RHS1		EQN   3.0
ENDATA
